Minimize
M1 + M2
Subject To
x0,7 + x0,8 + x0,9 + x0,10 = 1
x1,7 + x1,8 + x1,9 + x1,10 = 1
x2,6 + x2,7 + x2,8 + x2,9 = 1
x3,10 = 1
x4,10 = 1
x5,9 = 1
x6,10 = 1
x7,10 = 1
x8,9 = 1
x9,8 + x9,9 + x9,10 = 1
x10,8 + x10,9 + x10,10 = 1
x11,7 + x11,8 + x11,9 = 1
x12,1 + x12,2 + x12,3 + x12,4 + x12,5 + x12,6 + x12,7 + x12,8 + x12,9 + x12,10 = 1
x13,7 + x13,8 + x13,9 + x13,10 = 1
x14,6 + x14,7 + x14,8 = 1
x15,7 + x15,8 + x15,9 + x15,10 = 1
x16,7 + x16,8 + x16,9 + x16,10 = 1
x17,6 + x17,7 + x17,8 + x17,9 = 1
x18,7 + x18,8 + x18,9 + x18,10 = 1
x19,7 + x19,8 + x19,9 + x19,10 = 1
x20,6 + x20,7 + x20,8 + x20,9 = 1
x21,7 + x21,8 + x21,9 + x21,10 = 1
x22,7 + x22,8 + x22,9 + x22,10 = 1
x23,6 + x23,7 + x23,8 + x23,9 = 1
x24,9 + x24,10 = 1
x25,7 = 1
x26,9 + x26,10 = 1
x27,7 = 1
x28,6 = 1
x29,6 = 1
x30,5 = 1
x31,5 = 1
x32,5 + x32,6 + x32,7 + x32,8 = 1
x33,5 = 1
x34,5 + x34,6 + x34,7 + x34,8 + x34,9 + x34,10 = 1
x35,3 = 1
x36,5 + x36,6 + x36,7 + x36,8 + x36,9 + x36,10 = 1
x37,3 = 1
x38,5 + x38,6 + x38,7 + x38,8 + x38,9 + x38,10 = 1
x39,3 = 1
x40,5 + x40,6 + x40,7 + x40,8 + x40,9 + x40,10 = 1
x41,3 = 1
x42,5 + x42,6 + x42,7 + x42,8 + x42,9 + x42,10 = 1
x43,3 + x43,4 + x43,5 + x43,6 = 1
x44,5 + x44,6 + x44,7 + x44,8 + x44,9 + x44,10 = 1
x45,3 + x45,4 + x45,5 + x45,6 = 1
x46,5 + x46,6 + x46,7 + x46,8 + x46,9 + x46,10 = 1
x47,3 = 1
x48,5 + x48,6 + x48,7 + x48,8 + x48,9 + x48,10 = 1
x49,3 = 1
x50,2 = 1
x51,2 = 1
x52,2 = 1
x53,2 = 1
x54,5 + x54,6 + x54,7 = 1
x55,5 + x55,6 + x55,7 + x55,8 = 1
x56,5 + x56,6 + x56,7 + x56,8 = 1
x57,5 + x57,6 + x57,7 = 1
x58,5 + x58,6 + x58,7 + x58,8 + x58,9 + x58,10 = 1
x59,3 + x59,4 + x59,5 = 1
x60,5 + x60,6 + x60,7 + x60,8 + x60,9 + x60,10 = 1
x61,3 + x61,4 + x61,5 = 1
x62,5 + x62,6 + x62,7 + x62,8 + x62,9 + x62,10 = 1
x63,3 + x63,4 + x63,5 + x63,6 = 1
x64,5 + x64,6 + x64,7 + x64,8 + x64,9 + x64,10 = 1
x65,3 + x65,4 + x65,5 + x65,6 = 1
x66,5 + x66,6 + x66,7 + x66,8 + x66,9 + x66,10 = 1
x67,3 + x67,4 + x67,5 + x67,6 = 1
x68,5 + x68,6 + x68,7 + x68,8 + x68,9 + x68,10 = 1
x69,3 + x69,4 + x69,5 = 1
x70,2 + x70,3 + x70,4 = 1
x71,2 + x71,3 + x71,4 = 1
x72,2 + x72,3 + x72,4 = 1
x73,2 + x73,3 + x73,4 = 1
x74,1 = 1
x75,1 = 1
x76,1 = 1
x77,1 = 1
x78,1 + x78,2 + x78,3 = 1
x79,1 + x79,2 + x79,3 = 1
x80,1 + x80,2 + x80,3 = 1
x81,1 + x81,2 + x81,3 = 1
x12,1 + x74,1 + x75,1 + x76,1 + x77,1 + x78,1 + x79,1 + x80,1 + x81,1 - M2 <= 0
x12,2 + x50,2 + x51,2 + x52,2 + x53,2 + x70,2 + x71,2 + x72,2 + x73,2 + x78,2 + x79,2 + x80,2 + x81,2 - M2 <= 0
x12,3 + x70,3 + x71,3 + x72,3 + x73,3 + x78,3 + x79,3 + x80,3 + x81,3 - M2 <= 0
x35,3 + x35,2 + x37,3 + x37,2 + x39,3 + x39,2 + x41,3 + x41,2 + x43,3 + x43,2 + x45,3 + x45,2 + x47,3 + x47,2 + x49,3 + x49,2 + x59,3 + x59,2 + x61,3 + x61,2 + x63,3 + x63,2 + x65,3 + x65,2 + x67,3 + x67,2 + x69,3 + x69,2 - M1 <= 0
x12,4 + x70,4 + x71,4 + x72,4 + x73,4 - M2 <= 0
x35,4 + x35,3 + x37,4 + x37,3 + x39,4 + x39,3 + x41,4 + x41,3 + x43,4 + x43,3 + x45,4 + x45,3 + x47,4 + x47,3 + x49,4 + x49,3 + x59,4 + x59,3 + x61,4 + x61,3 + x63,4 + x63,3 + x65,4 + x65,3 + x67,4 + x67,3 + x69,4 + x69,3 - M1 <= 0
x12,5 + x30,5 + x31,5 + x32,5 + x33,5 + x34,5 + x36,5 + x38,5 + x40,5 + x42,5 + x44,5 + x46,5 + x48,5 + x54,5 + x55,5 + x56,5 + x57,5 + x58,5 + x60,5 + x62,5 + x64,5 + x66,5 + x68,5 - M2 <= 0
x43,5 + x43,4 + x45,5 + x45,4 + x59,5 + x59,4 + x61,5 + x61,4 + x63,5 + x63,4 + x65,5 + x65,4 + x67,5 + x67,4 + x69,5 + x69,4 - M1 <= 0
x2,6 + x12,6 + x14,6 + x17,6 + x20,6 + x23,6 + x28,6 + x29,6 + x32,6 + x34,6 + x36,6 + x38,6 + x40,6 + x42,6 + x44,6 + x46,6 + x48,6 + x54,6 + x55,6 + x56,6 + x57,6 + x58,6 + x60,6 + x62,6 + x64,6 + x66,6 + x68,6 - M2 <= 0
x43,6 + x43,5 + x45,6 + x45,5 + x59,6 + x59,5 + x61,6 + x61,5 + x63,6 + x63,5 + x65,6 + x65,5 + x67,6 + x67,5 + x69,6 + x69,5 - M1 <= 0
x0,7 + x1,7 + x2,7 + x11,7 + x12,7 + x13,7 + x14,7 + x15,7 + x16,7 + x17,7 + x18,7 + x19,7 + x20,7 + x21,7 + x22,7 + x23,7 + x32,7 + x34,7 + x36,7 + x38,7 + x40,7 + x42,7 + x44,7 + x46,7 + x48,7 + x54,7 + x55,7 + x56,7 + x57,7 + x58,7 + x60,7 + x62,7 + x64,7 + x66,7 + x68,7 - M2 <= 0
x25,7 + x25,6 + x27,7 + x27,6 + x43,7 + x43,6 + x45,7 + x45,6 + x63,7 + x63,6 + x65,7 + x65,6 + x67,7 + x67,6 - M1 <= 0
x0,8 + x1,8 + x2,8 + x9,8 + x10,8 + x11,8 + x12,8 + x13,8 + x14,8 + x15,8 + x16,8 + x17,8 + x18,8 + x19,8 + x20,8 + x21,8 + x22,8 + x23,8 + x32,8 + x34,8 + x36,8 + x38,8 + x40,8 + x42,8 + x44,8 + x46,8 + x48,8 + x55,8 + x56,8 + x58,8 + x60,8 + x62,8 + x64,8 + x66,8 + x68,8 - M2 <= 0
x25,8 + x25,7 + x27,8 + x27,7 - M1 <= 0
x0,9 + x1,9 + x2,9 + x5,9 + x8,9 + x9,9 + x10,9 + x11,9 + x12,9 + x13,9 + x15,9 + x16,9 + x17,9 + x18,9 + x19,9 + x20,9 + x21,9 + x22,9 + x23,9 + x24,9 + x26,9 + x34,9 + x36,9 + x38,9 + x40,9 + x42,9 + x44,9 + x46,9 + x48,9 + x58,9 + x60,9 + x62,9 + x64,9 + x66,9 + x68,9 - M2 <= 0
x0,10 + x1,10 + x3,10 + x4,10 + x6,10 + x7,10 + x9,10 + x10,10 + x12,10 + x13,10 + x15,10 + x16,10 + x18,10 + x19,10 + x21,10 + x22,10 + x24,10 + x26,10 + x34,10 + x36,10 + x38,10 + x40,10 + x42,10 + x44,10 + x46,10 + x48,10 + x58,10 + x60,10 + x62,10 + x64,10 + x66,10 + x68,10 - M2 <= 0
6 x2,6 + 7 x2,7 + 8 x2,8 + 9 x2,9 - 7 x0,7 - 8 x0,8 - 9 x0,9 - 10 x0,10 <= -1
6 x2,6 + 7 x2,7 + 8 x2,8 + 9 x2,9 - 7 x1,7 - 8 x1,8 - 9 x1,9 - 10 x1,10 <= -1
9 x5,9 - 10 x3,10 <= -1
9 x5,9 - 10 x4,10 <= -1
9 x8,9 - 10 x6,10 <= -1
9 x8,9 - 10 x7,10 <= -1
7 x11,7 + 8 x11,8 + 9 x11,9 - 8 x9,8 - 9 x9,9 - 10 x9,10 <= -1
7 x11,7 + 8 x11,8 + 9 x11,9 - 8 x10,8 - 9 x10,9 - 10 x10,10 <= -1
6 x14,6 + 7 x14,7 + 8 x14,8 - 7 x11,7 - 8 x11,8 - 9 x11,9 <= -1
6 x14,6 + 7 x14,7 + 8 x14,8 - 7 x13,7 - 8 x13,8 - 9 x13,9 - 10 x13,10 <= -1
6 x17,6 + 7 x17,7 + 8 x17,8 + 9 x17,9 - 7 x15,7 - 8 x15,8 - 9 x15,9 - 10 x15,10 <= -1
6 x17,6 + 7 x17,7 + 8 x17,8 + 9 x17,9 - 7 x16,7 - 8 x16,8 - 9 x16,9 - 10 x16,10 <= -1
6 x20,6 + 7 x20,7 + 8 x20,8 + 9 x20,9 - 7 x18,7 - 8 x18,8 - 9 x18,9 - 10 x18,10 <= -1
6 x20,6 + 7 x20,7 + 8 x20,8 + 9 x20,9 - 7 x19,7 - 8 x19,8 - 9 x19,9 - 10 x19,10 <= -1
6 x23,6 + 7 x23,7 + 8 x23,8 + 9 x23,9 - 7 x21,7 - 8 x21,8 - 9 x21,9 - 10 x21,10 <= -1
6 x23,6 + 7 x23,7 + 8 x23,8 + 9 x23,9 - 7 x22,7 - 8 x22,8 - 9 x22,9 - 10 x22,10 <= -1
7 x25,7 - 9 x5,9 <= -2
7 x25,7 - 9 x24,9 - 10 x24,10 <= -2
7 x27,7 - 9 x8,9 <= -2
7 x27,7 - 9 x26,9 - 10 x26,10 <= -2
6 x28,6 - 7 x25,7 <= -1
6 x28,6 - 7 x27,7 <= -1
6 x29,6 - 7 x25,7 <= -1
6 x29,6 - 7 x27,7 <= -1
5 x30,5 - 6 x2,6 - 7 x2,7 - 8 x2,8 - 9 x2,9 <= -1
5 x30,5 - 6 x28,6 <= -1
5 x31,5 - 6 x2,6 - 7 x2,7 - 8 x2,8 - 9 x2,9 <= -1
5 x31,5 - 6 x28,6 <= -1
5 x32,5 + 6 x32,6 + 7 x32,7 + 8 x32,8 - 7 x11,7 - 8 x11,8 - 9 x11,9 <= -1
5 x33,5 - 7 x11,7 - 8 x11,8 - 9 x11,9 <= -1
5 x33,5 - 6 x29,6 <= -1
3 x35,3 - 5 x30,5 <= -2
3 x35,3 - 5 x34,5 - 6 x34,6 - 7 x34,7 - 8 x34,8 - 9 x34,9 - 10 x34,10 <= -2
3 x37,3 - 5 x30,5 <= -2
3 x37,3 - 5 x36,5 - 6 x36,6 - 7 x36,7 - 8 x36,8 - 9 x36,9 - 10 x36,10 <= -2
3 x39,3 - 5 x31,5 <= -2
3 x39,3 - 5 x38,5 - 6 x38,6 - 7 x38,7 - 8 x38,8 - 9 x38,9 - 10 x38,10 <= -2
3 x41,3 - 5 x31,5 <= -2
3 x41,3 - 5 x40,5 - 6 x40,6 - 7 x40,7 - 8 x40,8 - 9 x40,9 - 10 x40,10 <= -2
3 x43,3 + 4 x43,4 + 5 x43,5 + 6 x43,6 - 5 x32,5 - 6 x32,6 - 7 x32,7 - 8 x32,8 <= -2
3 x43,3 + 4 x43,4 + 5 x43,5 + 6 x43,6 - 5 x42,5 - 6 x42,6 - 7 x42,7 - 8 x42,8 - 9 x42,9 - 10 x42,10 <= -2
3 x45,3 + 4 x45,4 + 5 x45,5 + 6 x45,6 - 5 x32,5 - 6 x32,6 - 7 x32,7 - 8 x32,8 <= -2
3 x45,3 + 4 x45,4 + 5 x45,5 + 6 x45,6 - 5 x44,5 - 6 x44,6 - 7 x44,7 - 8 x44,8 - 9 x44,9 - 10 x44,10 <= -2
3 x47,3 - 5 x33,5 <= -2
3 x47,3 - 5 x46,5 - 6 x46,6 - 7 x46,7 - 8 x46,8 - 9 x46,9 - 10 x46,10 <= -2
3 x49,3 - 5 x33,5 <= -2
3 x49,3 - 5 x48,5 - 6 x48,6 - 7 x48,7 - 8 x48,8 - 9 x48,9 - 10 x48,10 <= -2
2 x50,2 - 3 x35,3 <= -1
2 x50,2 - 3 x47,3 <= -1
2 x51,2 - 3 x39,3 <= -1
2 x51,2 - 3 x43,3 - 4 x43,4 - 5 x43,5 - 6 x43,6 <= -1
2 x52,2 - 3 x41,3 <= -1
2 x52,2 - 3 x45,3 - 4 x45,4 - 5 x45,5 - 6 x45,6 <= -1
2 x53,2 - 3 x37,3 <= -1
2 x53,2 - 3 x49,3 <= -1
5 x54,5 + 6 x54,6 + 7 x54,7 - 6 x14,6 - 7 x14,7 - 8 x14,8 <= -1
5 x54,5 + 6 x54,6 + 7 x54,7 - 6 x23,6 - 7 x23,7 - 8 x23,8 - 9 x23,9 <= -1
5 x55,5 + 6 x55,6 + 7 x55,7 + 8 x55,8 - 6 x17,6 - 7 x17,7 - 8 x17,8 - 9 x17,9 <= -1
5 x55,5 + 6 x55,6 + 7 x55,7 + 8 x55,8 - 6 x20,6 - 7 x20,7 - 8 x20,8 - 9 x20,9 <= -1
5 x56,5 + 6 x56,6 + 7 x56,7 + 8 x56,8 - 6 x17,6 - 7 x17,7 - 8 x17,8 - 9 x17,9 <= -1
5 x56,5 + 6 x56,6 + 7 x56,7 + 8 x56,8 - 6 x20,6 - 7 x20,7 - 8 x20,8 - 9 x20,9 <= -1
5 x57,5 + 6 x57,6 + 7 x57,7 - 6 x14,6 - 7 x14,7 - 8 x14,8 <= -1
5 x57,5 + 6 x57,6 + 7 x57,7 - 6 x23,6 - 7 x23,7 - 8 x23,8 - 9 x23,9 <= -1
3 x59,3 + 4 x59,4 + 5 x59,5 - 5 x54,5 - 6 x54,6 - 7 x54,7 <= -2
3 x59,3 + 4 x59,4 + 5 x59,5 - 5 x58,5 - 6 x58,6 - 7 x58,7 - 8 x58,8 - 9 x58,9 - 10 x58,10 <= -2
3 x61,3 + 4 x61,4 + 5 x61,5 - 5 x54,5 - 6 x54,6 - 7 x54,7 <= -2
3 x61,3 + 4 x61,4 + 5 x61,5 - 5 x60,5 - 6 x60,6 - 7 x60,7 - 8 x60,8 - 9 x60,9 - 10 x60,10 <= -2
3 x63,3 + 4 x63,4 + 5 x63,5 + 6 x63,6 - 5 x55,5 - 6 x55,6 - 7 x55,7 - 8 x55,8 <= -2
3 x63,3 + 4 x63,4 + 5 x63,5 + 6 x63,6 - 5 x62,5 - 6 x62,6 - 7 x62,7 - 8 x62,8 - 9 x62,9 - 10 x62,10 <= -2
3 x65,3 + 4 x65,4 + 5 x65,5 + 6 x65,6 - 5 x55,5 - 6 x55,6 - 7 x55,7 - 8 x55,8 <= -2
3 x65,3 + 4 x65,4 + 5 x65,5 + 6 x65,6 - 5 x64,5 - 6 x64,6 - 7 x64,7 - 8 x64,8 - 9 x64,9 - 10 x64,10 <= -2
3 x67,3 + 4 x67,4 + 5 x67,5 + 6 x67,6 - 5 x56,5 - 6 x56,6 - 7 x56,7 - 8 x56,8 <= -2
3 x67,3 + 4 x67,4 + 5 x67,5 + 6 x67,6 - 5 x66,5 - 6 x66,6 - 7 x66,7 - 8 x66,8 - 9 x66,9 - 10 x66,10 <= -2
3 x69,3 + 4 x69,4 + 5 x69,5 - 5 x57,5 - 6 x57,6 - 7 x57,7 <= -2
3 x69,3 + 4 x69,4 + 5 x69,5 - 5 x68,5 - 6 x68,6 - 7 x68,7 - 8 x68,8 - 9 x68,9 - 10 x68,10 <= -2
2 x70,2 + 3 x70,3 + 4 x70,4 - 3 x59,3 - 4 x59,4 - 5 x59,5 <= -1
2 x70,2 + 3 x70,3 + 4 x70,4 - 3 x63,3 - 4 x63,4 - 5 x63,5 - 6 x63,6 <= -1
2 x71,2 + 3 x71,3 + 4 x71,4 - 3 x61,3 - 4 x61,4 - 5 x61,5 <= -1
2 x71,2 + 3 x71,3 + 4 x71,4 - 3 x65,3 - 4 x65,4 - 5 x65,5 - 6 x65,6 <= -1
2 x72,2 + 3 x72,3 + 4 x72,4 - 3 x67,3 - 4 x67,4 - 5 x67,5 - 6 x67,6 <= -1
2 x72,2 + 3 x72,3 + 4 x72,4 - 3 x69,3 - 4 x69,4 - 5 x69,5 <= -1
2 x73,2 + 3 x73,3 + 4 x73,4 - 3 x67,3 - 4 x67,4 - 5 x67,5 - 6 x67,6 <= -1
2 x73,2 + 3 x73,3 + 4 x73,4 - 3 x69,3 - 4 x69,4 - 5 x69,5 <= -1
1 x74,1 - 2 x50,2 <= -1
1 x75,1 - 2 x51,2 <= -1
1 x76,1 - 2 x52,2 <= -1
1 x77,1 - 2 x53,2 <= -1
1 x78,1 + 2 x78,2 + 3 x78,3 - 2 x70,2 - 3 x70,3 - 4 x70,4 <= -1
1 x79,1 + 2 x79,2 + 3 x79,3 - 2 x71,2 - 3 x71,3 - 4 x71,4 <= -1
1 x80,1 + 2 x80,2 + 3 x80,3 - 2 x72,2 - 3 x72,3 - 4 x72,4 <= -1
1 x81,1 + 2 x81,2 + 3 x81,3 - 2 x73,2 - 3 x73,3 - 4 x73,4 <= -1
Bounds
0 <= x0,7 <= 1
0 <= x0,8 <= 1
0 <= x0,9 <= 1
0 <= x0,10 <= 1
0 <= x1,7 <= 1
0 <= x1,8 <= 1
0 <= x1,9 <= 1
0 <= x1,10 <= 1
0 <= x2,6 <= 1
0 <= x2,7 <= 1
0 <= x2,8 <= 1
0 <= x2,9 <= 1
0 <= x3,10 <= 1
0 <= x4,10 <= 1
0 <= x5,9 <= 1
0 <= x6,10 <= 1
0 <= x7,10 <= 1
0 <= x8,9 <= 1
0 <= x9,8 <= 1
0 <= x9,9 <= 1
0 <= x9,10 <= 1
0 <= x10,8 <= 1
0 <= x10,9 <= 1
0 <= x10,10 <= 1
0 <= x11,7 <= 1
0 <= x11,8 <= 1
0 <= x11,9 <= 1
0 <= x12,1 <= 1
0 <= x12,2 <= 1
0 <= x12,3 <= 1
0 <= x12,4 <= 1
0 <= x12,5 <= 1
0 <= x12,6 <= 1
0 <= x12,7 <= 1
0 <= x12,8 <= 1
0 <= x12,9 <= 1
0 <= x12,10 <= 1
0 <= x13,7 <= 1
0 <= x13,8 <= 1
0 <= x13,9 <= 1
0 <= x13,10 <= 1
0 <= x14,6 <= 1
0 <= x14,7 <= 1
0 <= x14,8 <= 1
0 <= x15,7 <= 1
0 <= x15,8 <= 1
0 <= x15,9 <= 1
0 <= x15,10 <= 1
0 <= x16,7 <= 1
0 <= x16,8 <= 1
0 <= x16,9 <= 1
0 <= x16,10 <= 1
0 <= x17,6 <= 1
0 <= x17,7 <= 1
0 <= x17,8 <= 1
0 <= x17,9 <= 1
0 <= x18,7 <= 1
0 <= x18,8 <= 1
0 <= x18,9 <= 1
0 <= x18,10 <= 1
0 <= x19,7 <= 1
0 <= x19,8 <= 1
0 <= x19,9 <= 1
0 <= x19,10 <= 1
0 <= x20,6 <= 1
0 <= x20,7 <= 1
0 <= x20,8 <= 1
0 <= x20,9 <= 1
0 <= x21,7 <= 1
0 <= x21,8 <= 1
0 <= x21,9 <= 1
0 <= x21,10 <= 1
0 <= x22,7 <= 1
0 <= x22,8 <= 1
0 <= x22,9 <= 1
0 <= x22,10 <= 1
0 <= x23,6 <= 1
0 <= x23,7 <= 1
0 <= x23,8 <= 1
0 <= x23,9 <= 1
0 <= x24,9 <= 1
0 <= x24,10 <= 1
0 <= x25,7 <= 1
0 <= x26,9 <= 1
0 <= x26,10 <= 1
0 <= x27,7 <= 1
0 <= x28,6 <= 1
0 <= x29,6 <= 1
0 <= x30,5 <= 1
0 <= x31,5 <= 1
0 <= x32,5 <= 1
0 <= x32,6 <= 1
0 <= x32,7 <= 1
0 <= x32,8 <= 1
0 <= x33,5 <= 1
0 <= x34,5 <= 1
0 <= x34,6 <= 1
0 <= x34,7 <= 1
0 <= x34,8 <= 1
0 <= x34,9 <= 1
0 <= x34,10 <= 1
0 <= x35,3 <= 1
0 <= x36,5 <= 1
0 <= x36,6 <= 1
0 <= x36,7 <= 1
0 <= x36,8 <= 1
0 <= x36,9 <= 1
0 <= x36,10 <= 1
0 <= x37,3 <= 1
0 <= x38,5 <= 1
0 <= x38,6 <= 1
0 <= x38,7 <= 1
0 <= x38,8 <= 1
0 <= x38,9 <= 1
0 <= x38,10 <= 1
0 <= x39,3 <= 1
0 <= x40,5 <= 1
0 <= x40,6 <= 1
0 <= x40,7 <= 1
0 <= x40,8 <= 1
0 <= x40,9 <= 1
0 <= x40,10 <= 1
0 <= x41,3 <= 1
0 <= x42,5 <= 1
0 <= x42,6 <= 1
0 <= x42,7 <= 1
0 <= x42,8 <= 1
0 <= x42,9 <= 1
0 <= x42,10 <= 1
0 <= x43,3 <= 1
0 <= x43,4 <= 1
0 <= x43,5 <= 1
0 <= x43,6 <= 1
0 <= x44,5 <= 1
0 <= x44,6 <= 1
0 <= x44,7 <= 1
0 <= x44,8 <= 1
0 <= x44,9 <= 1
0 <= x44,10 <= 1
0 <= x45,3 <= 1
0 <= x45,4 <= 1
0 <= x45,5 <= 1
0 <= x45,6 <= 1
0 <= x46,5 <= 1
0 <= x46,6 <= 1
0 <= x46,7 <= 1
0 <= x46,8 <= 1
0 <= x46,9 <= 1
0 <= x46,10 <= 1
0 <= x47,3 <= 1
0 <= x48,5 <= 1
0 <= x48,6 <= 1
0 <= x48,7 <= 1
0 <= x48,8 <= 1
0 <= x48,9 <= 1
0 <= x48,10 <= 1
0 <= x49,3 <= 1
0 <= x50,2 <= 1
0 <= x51,2 <= 1
0 <= x52,2 <= 1
0 <= x53,2 <= 1
0 <= x54,5 <= 1
0 <= x54,6 <= 1
0 <= x54,7 <= 1
0 <= x55,5 <= 1
0 <= x55,6 <= 1
0 <= x55,7 <= 1
0 <= x55,8 <= 1
0 <= x56,5 <= 1
0 <= x56,6 <= 1
0 <= x56,7 <= 1
0 <= x56,8 <= 1
0 <= x57,5 <= 1
0 <= x57,6 <= 1
0 <= x57,7 <= 1
0 <= x58,5 <= 1
0 <= x58,6 <= 1
0 <= x58,7 <= 1
0 <= x58,8 <= 1
0 <= x58,9 <= 1
0 <= x58,10 <= 1
0 <= x59,3 <= 1
0 <= x59,4 <= 1
0 <= x59,5 <= 1
0 <= x60,5 <= 1
0 <= x60,6 <= 1
0 <= x60,7 <= 1
0 <= x60,8 <= 1
0 <= x60,9 <= 1
0 <= x60,10 <= 1
0 <= x61,3 <= 1
0 <= x61,4 <= 1
0 <= x61,5 <= 1
0 <= x62,5 <= 1
0 <= x62,6 <= 1
0 <= x62,7 <= 1
0 <= x62,8 <= 1
0 <= x62,9 <= 1
0 <= x62,10 <= 1
0 <= x63,3 <= 1
0 <= x63,4 <= 1
0 <= x63,5 <= 1
0 <= x63,6 <= 1
0 <= x64,5 <= 1
0 <= x64,6 <= 1
0 <= x64,7 <= 1
0 <= x64,8 <= 1
0 <= x64,9 <= 1
0 <= x64,10 <= 1
0 <= x65,3 <= 1
0 <= x65,4 <= 1
0 <= x65,5 <= 1
0 <= x65,6 <= 1
0 <= x66,5 <= 1
0 <= x66,6 <= 1
0 <= x66,7 <= 1
0 <= x66,8 <= 1
0 <= x66,9 <= 1
0 <= x66,10 <= 1
0 <= x67,3 <= 1
0 <= x67,4 <= 1
0 <= x67,5 <= 1
0 <= x67,6 <= 1
0 <= x68,5 <= 1
0 <= x68,6 <= 1
0 <= x68,7 <= 1
0 <= x68,8 <= 1
0 <= x68,9 <= 1
0 <= x68,10 <= 1
0 <= x69,3 <= 1
0 <= x69,4 <= 1
0 <= x69,5 <= 1
0 <= x70,2 <= 1
0 <= x70,3 <= 1
0 <= x70,4 <= 1
0 <= x71,2 <= 1
0 <= x71,3 <= 1
0 <= x71,4 <= 1
0 <= x72,2 <= 1
0 <= x72,3 <= 1
0 <= x72,4 <= 1
0 <= x73,2 <= 1
0 <= x73,3 <= 1
0 <= x73,4 <= 1
0 <= x74,1 <= 1
0 <= x75,1 <= 1
0 <= x76,1 <= 1
0 <= x77,1 <= 1
0 <= x78,1 <= 1
0 <= x78,2 <= 1
0 <= x78,3 <= 1
0 <= x79,1 <= 1
0 <= x79,2 <= 1
0 <= x79,3 <= 1
0 <= x80,1 <= 1
0 <= x80,2 <= 1
0 <= x80,3 <= 1
0 <= x81,1 <= 1
0 <= x81,2 <= 1
0 <= x81,3 <= 1
M1 >= 1
M2 >= 1
Generals
x0,7
x0,8
x0,9
x0,10
x1,7
x1,8
x1,9
x1,10
x2,6
x2,7
x2,8
x2,9
x3,10
x4,10
x5,9
x6,10
x7,10
x8,9
x9,8
x9,9
x9,10
x10,8
x10,9
x10,10
x11,7
x11,8
x11,9
x12,1
x12,2
x12,3
x12,4
x12,5
x12,6
x12,7
x12,8
x12,9
x12,10
x13,7
x13,8
x13,9
x13,10
x14,6
x14,7
x14,8
x15,7
x15,8
x15,9
x15,10
x16,7
x16,8
x16,9
x16,10
x17,6
x17,7
x17,8
x17,9
x18,7
x18,8
x18,9
x18,10
x19,7
x19,8
x19,9
x19,10
x20,6
x20,7
x20,8
x20,9
x21,7
x21,8
x21,9
x21,10
x22,7
x22,8
x22,9
x22,10
x23,6
x23,7
x23,8
x23,9
x24,9
x24,10
x25,7
x26,9
x26,10
x27,7
x28,6
x29,6
x30,5
x31,5
x32,5
x32,6
x32,7
x32,8
x33,5
x34,5
x34,6
x34,7
x34,8
x34,9
x34,10
x35,3
x36,5
x36,6
x36,7
x36,8
x36,9
x36,10
x37,3
x38,5
x38,6
x38,7
x38,8
x38,9
x38,10
x39,3
x40,5
x40,6
x40,7
x40,8
x40,9
x40,10
x41,3
x42,5
x42,6
x42,7
x42,8
x42,9
x42,10
x43,3
x43,4
x43,5
x43,6
x44,5
x44,6
x44,7
x44,8
x44,9
x44,10
x45,3
x45,4
x45,5
x45,6
x46,5
x46,6
x46,7
x46,8
x46,9
x46,10
x47,3
x48,5
x48,6
x48,7
x48,8
x48,9
x48,10
x49,3
x50,2
x51,2
x52,2
x53,2
x54,5
x54,6
x54,7
x55,5
x55,6
x55,7
x55,8
x56,5
x56,6
x56,7
x56,8
x57,5
x57,6
x57,7
x58,5
x58,6
x58,7
x58,8
x58,9
x58,10
x59,3
x59,4
x59,5
x60,5
x60,6
x60,7
x60,8
x60,9
x60,10
x61,3
x61,4
x61,5
x62,5
x62,6
x62,7
x62,8
x62,9
x62,10
x63,3
x63,4
x63,5
x63,6
x64,5
x64,6
x64,7
x64,8
x64,9
x64,10
x65,3
x65,4
x65,5
x65,6
x66,5
x66,6
x66,7
x66,8
x66,9
x66,10
x67,3
x67,4
x67,5
x67,6
x68,5
x68,6
x68,7
x68,8
x68,9
x68,10
x69,3
x69,4
x69,5
x70,2
x70,3
x70,4
x71,2
x71,3
x71,4
x72,2
x72,3
x72,4
x73,2
x73,3
x73,4
x74,1
x75,1
x76,1
x77,1
x78,1
x78,2
x78,3
x79,1
x79,2
x79,3
x80,1
x80,2
x80,3
x81,1
x81,2
x81,3
M1
M2
End
